17	4	3
27	23	27	23	22	31	15	
0	0	0	0	0	3	10	5	9	2	8	3	2	3	4
8	4	5	7	5	4	1	1	7	3	8	1	17
7	2	3	4	3	1	2	8	5	8	7	3	5	9	15
1	9	7	3	10	4	8	1	6	5	5	3	7	13	17
10	2	10	6	8	5	1	10	1	5	10	3	6	10	17
150	7	3	8	1	9	7	9	4	5	1	3	8	14	17
125	5	4	6	3	1	9	1	2	5	3	1	17
25	7	10	10	4	9	6	4	7	1	1	2	17	17
25	6	2	4	2	3	5	8	3	10	3	3	11	12	16
175	6	8	8	10	8	4	4	7	5	8	1	17
225	5	2	1	7	7	3	5	6	7	10	2	13	17
200	9	8	1	4	6	7	8	6	8	3	1	17
10	8	6	5	1	8	7	8	2	3	9	1	14
10	4	3	3	9	2	5	3	10	8	2	1	17
10	2	1	7	3	3	5	6	7	1	10	1	17
9	1	4	8	1	4	8	3	8	3	9	2	17	17
0	0	0	0	0	8	8	6	5	4	3	0
